0
7
10
9
14
21
29
27
25
21
6
11
13
15
18
17
16
15
16
20
23
8
22
22
17
15
13
11
15
14
17
22
14
15
14
17
13
14
11
7
9
8
8
9
7
7
10
9
9
21
24
26
28
25
26
40
33
32
34
34
32
33
32
43
34
14
18
11
9
19
18
24
20
18
25
17
22
21
24
16
24
19
24
20
16
15
14
24
20
14
14
